NAME:  inst2_10
TYPE: ATSP
COMMENT: Asymmetric TSP (Fischetti)
DIMENSION:  10
EDGE_WEIGHT_TYPE: EXPLICIT
EDGE_WEIGHT_FORMAT: FULL_MATRIX 
EDGE_WEIGHT_SECTION
    0  564  484  961  107  249  912  568  728  847
    211  0  246  684  695  464  328  280  845  713
    992  154  0  498  239  420  823  747  253  720
    147  337  149  0  107  214  411  909  489  557
    387  620  210  378  0  942  709  350  443  671
    489  696  991  817  940  0  904  275  971  736
    850  858  844  857  317  604  0  929  982  393
    989  929  590  138  380  953  880  0  415  160
    807  853  361  570  794  900  514  862  0  574
    764  791  549  767  952  381  592  236  937  0
EOF
